This is Ipopt version 3.10.1, running with linear solver mumps.

Number of nonzeros in equality constraint Jacobian...:      225
Number of nonzeros in inequality constraint Jacobian.:        0
Number of nonzeros in Lagrangian Hessian.............:     5568

Total number of variables............................:      114
                     variables with only lower bounds:        0
                variables with lower and upper bounds:      114
                     variables with only upper bounds:        0
Total number of equality constraints.................:       75
Total number of inequality constraints...............:        0
        inequality constraints with only lower bounds:        0
   inequality constraints with lower and upper bounds:        0
        inequality constraints with only upper bounds:        0

iter    objective    inf_pr   inf_du lg(mu)  ||d||  lg(rg) alpha_du alpha_pr  ls
   0 -2.9306719e-05 7.31e-11 2.01e-05  -1.0 0.00e+00    -  0.00e+00 0.00e+00   0
   1 -2.9967456e-05 9.10e-15 7.84e-08  -1.7 1.83e-02    -  1.00e+00 1.00e+00f  1
   2 -3.1314435e-05 2.22e-16 4.33e-07  -2.5 2.96e-02    -  1.00e+00 1.00e+00f  1
   3 -3.1948489e-05 5.45e-12 8.91e-08  -3.8 2.36e-02    -  1.00e+00 1.00e+00f  1
   4 -3.4409247e-05 2.22e-16 1.89e-05  -5.7 1.06e-02    -  9.75e-01 1.00e+00h  1
   5 -7.4073670e-04 4.67e-14 1.26e-03  -5.7 3.29e+00  -4.0 1.17e-01 9.53e-02f  1
   6 -7.3194787e-04 4.64e-14 1.29e-03  -5.7 1.11e-01  -2.7 1.06e-01 7.81e-03f  8
   7 -7.3829778e-04 2.78e-13 4.95e-03  -5.7 5.06e-02  -1.3 1.00e+00 3.77e-01f  2
   8 -8.6211497e-04 1.82e-13 8.19e-04  -5.7 3.54e-02  -1.8 1.00e+00 3.46e-01f  1
   9 -1.0115502e-03 3.06e-13 4.83e-04  -5.7 1.20e-02  -1.4 1.00e+00 1.00e+00f  1
iter    objective    inf_pr   inf_du lg(mu)  ||d||  lg(rg) alpha_du alpha_pr  ls
  10 -1.3863981e-03 2.05e-13 8.36e-04  -5.7 7.46e-02  -1.9 1.00e+00 3.30e-01f  1
  11 -1.5515699e-03 3.86e-13 1.38e-03  -5.7 2.39e-02  -1.4 1.00e+00 4.50e-01f  1
  12 -2.0701298e-03 3.29e-13 4.98e-03  -5.7 1.86e-01  -1.9 1.00e+00 1.50e-01f  1
  13 -2.0650065e-03 3.28e-13 1.85e-03  -5.7 5.65e-01  -2.4 3.36e-01 1.85e-03f  9
  14 -2.5535482e-03 3.19e-13 1.61e-02  -5.7 7.98e-01  -2.0 5.65e-01 2.77e-02f  1
  15 -3.7395543e-03 9.77e-13 1.96e-03  -5.7 6.70e-02  -1.5 1.00e+00 5.90e-01f  1
  16 -4.0467864e-03 6.75e-13 2.69e-03  -5.7 2.66e-02  -1.1 1.00e+00 3.09e-01f  1
  17 -4.5048888e-03 6.17e-13 8.85e-03  -5.7 1.58e-01  -1.6 1.00e+00 8.61e-02f  1
  18 -5.0837020e-03 3.00e-13 2.57e-03  -5.7 3.10e-02  -1.2 1.00e+00 5.14e-01f  1
  19 -6.0580200e-03 8.86e-13 1.34e-02  -5.7 2.41e-01  -1.6 1.00e+00 1.05e-01f  1
iter    objective    inf_pr   inf_du lg(mu)  ||d||  lg(rg) alpha_du alpha_pr  ls
  20 -7.1556574e-03 1.68e-12 2.95e-03  -5.7 4.98e-02  -1.2 1.00e+00 5.20e-01f  1
  21 -8.2529748e-03 1.65e-12 2.02e-02  -5.7 1.30e+00  -1.7 2.26e-01 2.06e-02f  1
  22 -1.0952722e-02 2.80e-12 4.48e-03  -5.7 9.57e-02  -1.3 1.00e+00 5.44e-01f  1
  23 -1.1801706e-02 1.70e-12 4.85e-03  -5.7 4.04e-02  -0.8 1.00e+00 3.94e-01f  1
  24 -1.2794206e-02 1.59e-12 2.49e-02  -5.7 2.60e-01  -1.3 1.00e+00 6.24e-02f  1
  25 -1.4125651e-02 1.58e-12 2.64e-02  -5.7 1.13e+01  -1.8 1.26e-02 6.62e-03f  1
  26 -1.5888683e-02 2.81e-12 2.39e-02  -5.7 2.20e-01  -1.4 2.92e-01 1.17e-01f  1
  27 -1.7575612e-02 1.42e-12 7.85e-03  -5.7 4.97e-02  -1.0 1.00e+00 4.94e-01f  1
  28 -2.1908639e-02 8.61e-13 4.74e-03  -5.7 1.56e-01  -1.4 3.99e-01 3.95e-01f  1
  29 -2.3705244e-02 2.73e-12 5.11e-03  -5.7 5.59e-02  -1.0 5.09e-01 4.89e-01f  1
iter    objective    inf_pr   inf_du lg(mu)  ||d||  lg(rg) alpha_du alpha_pr  ls
  30 -2.3670622e-02 2.73e-12 5.10e-03  -5.7 4.83e+00  -1.5 6.58e-03 1.65e-04h  1
  31 -2.7004735e-02 3.53e-12 1.25e-02  -5.7 9.25e-02  -1.1 1.00e+00 4.66e-01f  1
  32 -2.7643204e-02 3.47e-12 1.17e-02  -5.7 2.86e+00  -1.5 4.57e-03 1.75e-02f  1
  33 -2.7709096e-02 3.49e-12 9.09e-03  -5.7 1.07e-01  -1.1 2.79e-01 7.37e-03f  1
  34 -2.9705925e-02 2.65e-12 6.12e-03  -5.7 3.11e-02  -0.7 8.73e-01 6.87e-01f  1
  35 -3.7710961e-02 5.85e-12 9.48e-03  -5.7 1.42e-01  -1.2 2.99e-01 4.91e-01f  1
  36 -3.9298575e-02 5.87e-12 9.89e-03  -5.7 6.04e-02  -0.7 5.57e-01 1.94e-01f  1
  37 -4.7642987e-02 9.61e-12 1.96e-02  -5.7 3.82e-01  -1.2 4.87e-02 1.69e-01f  1
  38 -4.9265493e-02 8.65e-12 1.25e-02  -5.7 1.09e-01  -0.8 4.83e-01 1.01e-01f  1
  39 -4.6590503e-02 8.63e-12 1.19e-02  -5.7 9.48e+00  -1.3 1.63e-03 2.07e-03h  1
iter    objective    inf_pr   inf_du lg(mu)  ||d||  lg(rg) alpha_du alpha_pr  ls
  40 -4.6637761e-02 8.62e-12 5.17e-02  -5.7 2.30e+00  -0.8 9.63e-06 9.08e-04f  1
  41 -4.6637222e-02 8.62e-12 5.40e-02  -5.7 3.87e+00  -1.3 1.01e-02 1.04e-06f 13
  42 -5.1916351e-02 6.48e-12 4.33e-02  -5.7 1.40e-01  -0.9 1.94e-01 2.48e-01f  1
  43 -5.2118312e-02 5.94e-12 4.31e-02  -5.7 9.05e-02  -0.5 3.22e-01 8.33e-02f  1
  44 -5.3474283e-02 6.22e-12 4.05e-02  -5.7 1.68e-01  -0.9 1.19e-01 4.64e-02f  1
  45 -5.5993839e-02 3.90e-12 2.79e-02  -5.7 4.07e-02  -0.5 1.00e+00 3.74e-01f  1
  46 -6.1021416e-02 5.68e-12 2.56e-02  -5.7 1.91e-01  -1.0 2.11e-01 1.36e-01f  1
  47 -6.2048431e-02 5.65e-12 2.58e-02  -5.7 1.97e+00  -1.5 6.52e-03 5.30e-03f  1
  48 -6.2184464e-02 5.63e-12 2.52e-02  -5.7 1.35e+00  -1.0 7.55e-04 2.24e-03f  1
  49 -6.2642573e-02 5.63e-12 2.42e-02  -5.7 7.84e+00  -1.5 6.42e-07 6.15e-04f  1
iter    objective    inf_pr   inf_du lg(mu)  ||d||  lg(rg) alpha_du alpha_pr  ls
  50 -7.1447038e-02 8.63e-12 2.55e-02  -5.7 2.93e-01  -1.1 2.31e-02 1.31e-01f  1
  51 -7.7072135e-02 9.35e-12 3.96e-02  -5.7 7.26e-02  -0.7 1.00e+00 2.81e-01f  1
  52 -8.2621620e-02 1.08e-11 3.51e-02  -5.7 4.68e-01  -1.1 3.58e-02 4.73e-02f  1
  53 -8.5561240e-02 1.07e-11 3.00e-02  -5.7 8.29e-02  -0.7 5.12e-02 1.42e-01f  1
  54 -8.5559098e-02 1.07e-11 2.93e-02  -5.7 1.62e+00  -1.2 7.61e-03 1.28e-05f 10
  55 -8.6052225e-02 1.07e-11 3.05e-02  -5.7 9.70e-02  -0.8 1.33e-01 1.58e-02f  1
  56 -8.6045909e-02 1.07e-11 3.04e-02  -5.7 1.10e+00  -1.2 5.96e-04 5.68e-05f  9
  57 -8.6038501e-02 1.07e-11 3.04e-02  -5.7 2.96e+00  -0.8 1.45e-04 3.55e-05f  7
  58 -8.5531182e-02 1.05e-11 3.03e-02  -5.7 8.27e-01  -1.3 2.18e-03 1.55e-02h  1
  59 -8.6245324e-02 1.06e-11 2.92e-02  -5.7 1.31e-01  -0.9 1.36e-03 1.80e-02f  1
iter    objective    inf_pr   inf_du lg(mu)  ||d||  lg(rg) alpha_du alpha_pr  ls
  60 -8.6231255e-02 1.06e-11 2.92e-02  -5.7 6.54e-01  -0.4 9.61e-04 6.08e-04f  2
  61 -8.7345133e-02 1.09e-11 4.91e-02  -5.7 1.61e-01  -0.9 4.31e-01 2.36e-02f  1
  62 -8.7343444e-02 1.09e-11 3.83e-02  -5.7 7.20e-01  -1.4 1.70e-01 3.56e-05f 10
  63 -9.2692706e-02 9.98e-12 7.49e-02  -5.7 2.19e-01  -1.0 5.35e-01 8.00e-02f  1
  64 -9.3660742e-02 8.29e-12 6.82e-02  -5.7 5.08e-02  -0.5 1.27e-02 1.69e-01f  1
  65 -9.6422033e-02 9.09e-12 7.29e-02  -5.7 3.53e-01  -1.0 1.15e-01 2.85e-02f  1
  66 -9.7085908e-02 1.58e-11 7.02e-02  -5.7 6.30e-02  -0.6 1.96e-02 5.28e-02f  1
  67 -1.0381419e-01 1.48e-11 6.38e-02  -5.7 4.76e-01  -1.1 1.70e-02 6.34e-02f  1
  68 -1.0653672e-01 1.03e-11 5.66e-02  -5.7 8.11e-02  -0.6 3.42e-02 1.27e-01f  1
  69 -1.0763285e-01 8.69e-12 3.49e-02  -5.7 2.55e-02  -0.2 1.00e+00 1.53e-01f  1
iter    objective    inf_pr   inf_du lg(mu)  ||d||  lg(rg) alpha_du alpha_pr  ls
  70 -1.1584969e-01 4.74e-12 2.53e-02  -5.7 9.29e-02  -0.7 7.65e-01 4.54e-01f  1
  71 -1.1584507e-01 4.74e-12 2.51e-02  -5.7 7.29e-01  -1.2 2.28e-03 9.50e-05f  8
  72 -1.1603581e-01 1.49e-11 6.22e-02  -5.7 8.41e-02  -0.7 2.17e-04 2.67e-02f  1
  73 -1.1645896e-01 1.33e-11 5.20e-02  -5.7 3.52e-02  -0.3 1.00e+00 5.45e-02f  1
  74 -1.1852952e-01 1.14e-11 3.87e-02  -5.7 1.14e-01  -0.8 4.12e-02 1.06e-01f  1
  75 -1.2372138e-01 7.47e-12 1.33e-02  -5.7 3.11e-02  -0.4 1.00e+00 8.11e-01f  1
  76 -1.4972770e-01 2.19e-11 3.97e-02  -5.7 2.23e-01  -0.8 1.70e-01 4.89e-01f  1
  77 -1.5866501e-01 1.49e-11 4.84e-02  -5.7 8.65e-02  -0.4 9.56e-01 3.19e-01f  1
  78 -1.9281022e-01 2.92e-11 4.47e-02  -5.7 9.56e-01  -0.9 1.09e-01 1.11e-01f  1
  79 -1.9383757e-01 2.46e-11 6.38e-02  -5.7 8.19e-01  -1.4 4.12e-02 1.56e-01f  1
iter    objective    inf_pr   inf_du lg(mu)  ||d||  lg(rg) alpha_du alpha_pr  ls
  80 -1.9380436e-01 2.46e-11 6.40e-02  -5.7 5.54e+00  -1.9 4.54e-07 6.24e-05f  7
  81 -2.0929098e-01 1.83e-11 6.77e-02  -5.7 1.63e-01  -0.5 7.90e-01 2.59e-01f  1
  82 -3.1114678e-01 1.69e-11 1.36e-01  -5.7 2.38e+00  -1.0 3.35e-02 7.59e-02f  1
  83 -3.1394840e-01 1.81e-11 1.65e-01  -5.7 3.40e+00  -1.5 2.32e-02 2.69e-03f  1
  84 -3.1394600e-01 1.81e-11 2.69e-01  -5.7 1.72e+00    -  1.02e-01 1.37e-05f 14
  85 -3.0985360e-01 1.77e-11 2.71e-01  -5.7 1.73e+00    -  4.10e-02 2.40e-02h  1
  86 -3.0984793e-01 1.77e-11 2.67e-01  -5.7 3.88e+00  -2.0 3.20e-02 4.93e-06f 13
  87 -3.1111559e-01 1.76e-11 2.58e-01  -5.7 2.58e+00  -1.5 3.15e-02 1.53e-03f  1
  88 -3.3628517e-01 1.52e-11 2.32e-01  -5.7 5.34e-01  -1.1 9.00e-02 1.36e-01f  1
  89 -3.2403925e-01 1.52e-11 2.42e-01  -5.7 4.38e+01  -1.6 1.37e-03 8.55e-04h  1
iter    objective    inf_pr   inf_du lg(mu)  ||d||  lg(rg) alpha_du alpha_pr  ls
  90 -3.2402075e-01 1.52e-11 2.50e-01  -5.7 9.97e-01    -  8.47e-03 8.13e-05f  7
  91 -2.8710469e-01 1.25e-11 2.74e-01  -5.7 9.95e-01    -  5.52e-02 1.76e-01h  1
  92 -2.9289274e-01 1.24e-11 2.83e-01  -5.7 4.42e+00    -  1.09e-05 9.98e-03f  1
  93 -3.2152894e-01 9.67e-12 2.22e-01  -5.7 4.36e-01  -1.2 2.06e-01 2.21e-01f  1
  94 -3.2682685e-01 1.31e-11 2.07e-01  -5.7 2.92e+00  -1.6 3.08e-02 6.83e-03f  2
  95 -3.2739250e-01 1.35e-11 2.98e-01  -5.7 5.41e-01  -1.2 1.10e-01 3.49e-03f  4
  96 -3.1320348e-01 1.23e-11 3.64e-01  -5.7 8.19e-01    -  3.70e-02 8.95e-02h  1
  97 -3.1633384e-01 1.23e-11 4.13e-01  -5.7 2.35e+00  -1.7 3.40e-02 5.78e-03f  1
  98 -3.1633297e-01 1.23e-11 3.12e-01  -5.7 5.18e-01    -  2.21e-01 8.73e-06f 15
  99 -3.1779790e-01 2.22e-16 1.26e-01  -5.7 3.81e-02  -0.4 4.38e-01 1.00e+00f  1
iter    objective    inf_pr   inf_du lg(mu)  ||d||  lg(rg) alpha_du alpha_pr  ls
 100 -3.2632858e-01 2.22e-16 5.09e-02  -5.7 8.20e-02  -0.8 8.73e-01 5.78e-01f  1
 101 -3.3872717e-01 2.78e-11 7.35e-02  -5.7 2.58e-01  -1.3 5.04e-01 2.16e-01f  1
 102 -3.9480615e-01 1.27e-10 2.80e-01  -5.7 2.54e+00  -1.8 1.63e-01 8.00e-02f  1
 103 -4.1542205e-01 1.24e-10 5.55e-01  -5.7 1.99e+00  -1.4 1.48e-01 2.97e-02f  1
 104 -4.1532028e-01 1.19e-10 2.15e-01  -5.7 1.47e-02    -  1.00e+00 2.30e-02f  5
 105 -4.1598267e-01 2.22e-16 9.71e-04  -5.7 1.81e-02    -  1.00e+00 1.00e+00f  1
 106 -4.1598435e-01 2.22e-16 2.50e-03  -5.7 1.98e-03    -  9.87e-01 1.00e+00f  1
 107 -4.1598433e-01 2.22e-16 1.53e-09  -5.7 2.47e-05    -  1.00e+00 1.00e+00f  1
 108 -4.1615762e-01 1.77e-14 9.94e-08  -8.6 9.40e-05    -  1.00e+00 1.00e+00f  1
 109 -4.1615755e-01 8.84e-13 2.25e-13  -8.6 6.12e-08    -  1.00e+00 1.00e+00h  1

Number of Iterations....: 109

                                   (scaled)                 (unscaled)
Objective...............:  -4.1615754533622795e-01   -4.1615754533622795e-01
Dual infeasibility......:   2.2505088291126750e-13    2.2505088291126750e-13
Constraint violation....:   8.8440366141639970e-13    8.8440366141639970e-13
Complementarity.........:   2.8242579970606084e-09    2.8242579970606084e-09
Overall NLP error.......:   2.8242579970606084e-09    2.8242579970606084e-09


Number of objective function evaluations             = 241
Number of objective gradient evaluations             = 110
Number of equality constraint evaluations            = 241
Number of inequality constraint evaluations          = 0
Number of equality constraint Jacobian evaluations   = 1
Number of inequality constraint Jacobian evaluations = 0
Number of Lagrangian Hessian evaluations             = 109
Total CPU secs in IPOPT (w/o function evaluations)   =      1.380
Total CPU secs in NLP function evaluations           =     27.590

EXIT: Optimal Solution Found.
